NAME: Tnm94
COMMENT: Recalculated optimal tour for Tnm94, using concorde got a tour of length 1285416.0
TYPE: TOUR
DIMENSION: 94
TOUR_SECTION:
1
72
69
74
66
63
60
57
54
51
48
45
42
39
36
33
30
27
24
21
18
15
12
9
6
73
3
71
68
65
62
76
79
59
56
53
50
47
44
41
38
35
32
82
85
88
91
94
92
93
90
87
84
81
29
26
23
20
17
14
11
8
78
75
5
2
70
67
64
61
58
55
52
49
46
43
40
37
34
31
28
25
22
19
16
13
89
86
83
80
77
10
7
4 
-1
EOF
